c t mc
c file mc2022_track1_013.cnf
p cnf 68 352
9 -16 -45 -44 -31 0
51 8 -32 -25 12 0
44 31 -23 -33 24 0
33 -24 -11 35 -19 0
9 -16 45 44 -31 0
46 -42 55 9 -16 0
-36 64 1 -38 -50 0
47 -40 56 -15 -30 0
-66 28 67 -17 -58 0
-20 34 -10 -66 -28 0
-35 -19 -22 37 18 0
9 16 45 -44 -31 0
-47 40 -56 15 -30 0
-46 -42 -55 9 -16 0
49 59 48 -3 -54 0
-21 60 -68 -49 -59 0
5 -27 43 53 -63 0
-35 19 -22 -37 18 0
65 -57 -29 -20 -34 0
-65 -57 -29 20 -34 0
3 -54 -2 -46 -42 0
44 -31 23 33 -24 0
36 -64 -1 38 -50 0
-46 42 -55 -9 -16 0
35 19 -22 37 18 0
-5 -27 43 -53 -63 0
44 -31 23 -33 24 0
46 42 55 9 16 0
-21 60 -68 49 59 0
51 8 32 -25 -12 0
20 -34 -10 -66 -28 0
53 63 39 -21 60 0
14 -52 -13 47 -40 0
-65 -57 29 -20 -34 0
-51 8 -32 -25 -12 0
-66 28 -67 -17 58 0
-14 -52 -13 -47 -40 0
-46 42 55 -9 16 0
-21 60 68 49 -59 0
-47 -40 -56 -15 -30 0
25 -12 -26 -5 -27 0
33 -24 11 35 19 0
-5 27 43 53 -63 0
49 59 -48 3 -54 0
-25 -12 26 5 27 0
-51 -8 32 25 12 0
65 -57 29 -20 34 0
-44 31 23 -33 24 0
-15 30 7 -51 -8 0
-37 18 6 -61 4 0
-47 40 -56 -15 30 0
-3 -54 -2 -46 42 0
-44 -31 23 -33 -24 0
3 -54 2 -46 42 0
66 -28 -67 17 -58 0
33 -24 -11 -35 19 0
-21 -60 68 -49 -59 0
17 -58 -41 -14 52 0
-33 24 -11 35 -19 0
21 60 68 49 59 0
-51 8 32 -25 12 0
-14 -52 -13 47 40 0
53 63 39 21 -60 0
-15 -30 7 51 -8 0
66 -28 67 17 58 0
49 -59 48 3 -54 0
21 -60 -68 -49 -59 0
9 16 45 44 31 0
-36 -64 -1 -38 -50 0
-33 -24 11 -35 19 0
-15 30 7 51 8 0
21 60 68 -49 -59 0
51 -8 -32 25 12 0
35 -19 22 -37 -18 0
-44 -31 23 33 24 0
-44 31 -23 33 24 0
-65 -57 29 20 34 0
-5 27 -43 -53 -63 0
-17 -58 -41 -14 -52 0
-3 -54 -2 46 -42 0
25 12 26 5 27 0
47 40 -56 15 30 0
15 30 7 -51 8 0
-15 -30 -7 51 8 0
-25 12 -26 -5 -27 0
21 -60 68 -49 59 0
-53 -63 -39 21 60 0
3 -54 -2 46 42 0
61 -4 -62 36 -64 0
-5 27 43 -53 63 0
-61 -4 62 -36 64 0
-35 19 -22 37 -18 0
44 31 23 33 24 0
-14 52 13 47 40 0
-51 -8 -32 -25 12 0
-5 -27 -43 -53 63 0
-15 -30 -7 -51 -8 0
-36 -64 1 38 -50 0
-3 -54 2 -46 -42 0
49 -59 -48 3 54 0
-49 -59 48 3 54 0
53 63 -39 21 60 0
-14 52 13 -47 -40 0
-33 -24 -11 -35 -19 0
14 -52 -13 -47 40 0
-5 -27 43 53 63 0
-37 18 -6 -61 -4 0
61 -4 -62 -36 64 0
21 60 -68 -49 59 0
-20 34 10 -66 28 0
-53 63 39 -21 -60 0
46 -42 -55 9 16 0
-14 -52 13 -47 40 0
36 64 -1 38 50 0
-46 42 55 9 -16 0
51 -8 32 -25 12 0
-51 -8 32 -25 -12 0
-20 34 10 66 -28 0
25 -12 26 5 -27 0
66 -28 -67 -17 58 0
-33 24 -11 -35 19 0
53 -63 39 21 60 0
-17 58 41 -14 -52 0
-3 54 2 46 -42 0
-25 12 26 5 -27 0
20 -34 10 66 -28 0
17 58 -41 14 52 0
46 42 55 -9 -16 0
-46 42 -55 9 16 0
-47 -40 56 -15 30 0
-65 57 29 -20 34 0
-49 59 -48 3 54 0
20 34 -10 -66 28 0
46 42 -55 -9 16 0
14 52 -13 47 40 0
15 -30 7 51 8 0
65 57 -29 20 -34 0
44 -31 -23 -33 -24 0
-3 -54 2 46 42 0
37 18 -6 61 -4 0
49 -59 48 -3 54 0
-25 12 26 -5 27 0
-61 4 62 36 64 0
-53 63 39 21 60 0
33 24 11 -35 19 0
-61 4 -62 -36 64 0
-36 -64 1 -38 50 0
15 -30 -7 -51 8 0
-17 58 -41 14 -52 0
44 31 -23 33 -24 0
-17 -58 -41 14 52 0
-5 27 -43 53 63 0
15 -30 7 -51 -8 0
-14 52 -13 -47 40 0
17 58 -41 -14 -52 0
33 24 -11 35 19 0
37 18 6 -61 -4 0
-3 54 2 -46 42 0
9 16 -45 44 -31 0
-17 -58 41 14 -52 0
-14 -52 13 47 -40 0
-51 8 32 25 -12 0
-49 -59 -48 3 -54 0
61 4 -62 36 64 0
33 -24 11 -35 -19 0
46 -42 55 -9 16 0
61 4 -62 -36 -64 0
-33 -24 11 35 -19 0
9 16 -45 -44 31 0
-53 -63 39 -21 60 0
3 54 2 -46 -42 0
-33 24 11 35 19 0
15 -30 -7 51 -8 0
-65 57 -29 20 34 0
46 -42 -55 -9 -16 0
-35 19 22 37 18 0
-37 18 6 61 -4 0
-9 -16 45 -44 -31 0
-66 -28 -67 17 58 0
15 30 -7 51 8 0
14 52 13 -47 40 0
66 28 67 17 -58 0
65 57 -29 -20 34 0
-46 -42 -55 -9 16 0
53 63 -39 -21 -60 0
36 64 1 -38 50 0
-44 -31 -23 -33 24 0
44 -31 -23 33 24 0
5 -27 -43 -53 -63 0
5 27 -43 53 -63 0
-65 57 -29 -20 -34 0
-37 -18 -6 61 -4 0
21 60 -68 49 -59 0
-47 40 56 -15 -30 0
-25 12 -26 5 27 0
-21 -60 -68 -49 59 0
-61 4 -62 36 -64 0
-9 16 45 -44 31 0
17 -58 41 14 52 0
-46 -42 55 -9 -16 0
-61 -4 -62 -36 -64 0
9 -16 -45 44 31 0
-66 -28 67 17 -58 0
-25 -12 26 -5 -27 0
20 -34 10 -66 28 0
-35 19 22 -37 -18 0
5 27 43 53 63 0
-65 -57 -29 -20 34 0
15 30 7 51 -8 0
61 -4 62 36 64 0
37 18 6 61 4 0
9 -16 45 -44 31 0
20 -34 -10 66 28 0
-9 -16 -45 44 -31 0
-47 -40 -56 15 30 0
-20 -34 10 66 28 0
36 -64 -1 -38 50 0
-9 -16 45 44 31 0
-35 -19 -22 -37 -18 0
14 52 -13 -47 -40 0
20 34 -10 66 -28 0
3 54 -2 46 -42 0
25 12 26 -5 -27 0
-9 16 45 44 -31 0
-36 -64 -1 38 50 0
-3 54 -2 46 42 0
-47 40 56 15 30 0
-21 -60 -68 49 -59 0
21 -60 -68 49 59 0
-33 -24 -11 35 19 0
-37 -18 -6 -61 4 0
-53 -63 39 21 -60 0
53 -63 -39 21 -60 0
-37 18 -6 61 4 0
-46 -42 55 9 16 0
-9 16 -45 -44 -31 0
53 -63 -39 -21 60 0
-17 58 41 14 52 0
14 -52 13 -47 -40 0
44 31 23 -33 -24 0
17 58 41 14 -52 0
-61 4 62 -36 -64 0
33 24 -11 -35 -19 0
25 -12 -26 5 27 0
-44 -31 -23 33 -24 0
66 -28 67 -17 -58 0
-15 30 -7 -51 8 0
37 -18 6 61 -4 0
17 58 41 -14 52 0
-37 -18 6 61 4 0
33 24 11 35 -19 0
36 -64 1 38 50 0
21 -60 68 49 -59 0
65 57 29 20 34 0
66 28 67 -17 58 0
49 59 -48 -3 54 0
-51 -8 -32 25 -12 0
37 -18 6 -61 4 0
49 -59 -48 -3 -54 0
5 -27 43 -53 63 0
37 18 -6 -61 4 0
-44 31 -23 -33 -24 0
-17 -58 41 -14 52 0
14 52 13 47 -40 0
-5 -27 -43 53 -63 0
-53 -63 -39 -21 -60 0
47 -40 56 15 30 0
36 -64 1 -38 -50 0
-66 28 67 17 58 0
-20 34 -10 66 28 0
37 -18 -6 61 4 0
-66 28 -67 17 -58 0
51 -8 -32 -25 -12 0
47 40 56 15 -30 0
-65 57 29 20 -34 0
66 28 -67 -17 -58 0
14 -52 13 47 40 0
-49 59 -48 -3 -54 0
-3 54 -2 -46 -42 0
-36 64 1 38 50 0
-25 -12 -26 -5 27 0
-37 -18 6 -61 -4 0
-49 -59 -48 -3 54 0
5 27 43 -53 -63 0
-21 60 68 -49 59 0
-17 58 -41 -14 52 0
-15 30 -7 51 -8 0
-33 24 11 -35 -19 0
-25 -12 -26 5 -27 0
35 -19 22 37 18 0
35 -19 -22 -37 18 0
-53 63 -39 -21 60 0
35 19 22 -37 18 0
36 64 1 38 -50 0
-9 -16 -45 -44 31 0
-61 -4 -62 36 64 0
-14 52 -13 47 -40 0
53 -63 39 -21 -60 0
-9 16 -45 44 31 0
47 40 56 -15 30 0
25 12 -26 -5 27 0
-44 31 23 33 -24 0
47 40 -56 -15 -30 0
-20 -34 -10 -66 28 0
46 42 -55 9 -16 0
61 -4 62 -36 -64 0
-20 -34 10 -66 -28 0
15 30 -7 -51 -8 0
-35 -19 22 -37 18 0
49 59 48 3 54 0
5 27 -43 -53 63 0
65 -57 29 20 -34 0
51 8 -32 25 -12 0
-61 -4 62 36 -64 0
35 19 22 37 -18 0
3 -54 2 46 -42 0
25 -12 26 -5 27 0
-36 64 -1 -38 50 0
61 4 62 -36 64 0
36 64 -1 -38 -50 0
66 28 -67 17 58 0
35 -19 -22 37 -18 0
17 -58 41 -14 -52 0
35 19 -22 -37 -18 0
65 57 29 -20 -34 0
25 12 -26 5 -27 0
-20 -34 -10 66 -28 0
61 4 62 36 -64 0
20 34 10 66 28 0
-53 63 -39 21 -60 0
-51 8 -32 25 12 0
37 -18 -6 -61 -4 0
-66 -28 -67 -17 -58 0
-21 -60 68 49 59 0
3 54 -2 -46 42 0
5 -27 -43 53 63 0
-15 -30 7 -51 8 0
3 54 2 46 42 0
-49 59 48 3 -54 0
-36 64 -1 38 -50 0
51 -8 32 25 -12 0
17 -58 -41 14 -52 0
-49 -59 48 -3 -54 0
65 -57 -29 20 34 0
-35 -19 22 37 -18 0
47 -40 -56 15 -30 0
-47 -40 56 15 -30 0
20 34 10 -66 -28 0
51 8 32 25 12 0
-49 59 48 -3 54 0
47 -40 -56 -15 30 0
-66 -28 67 -17 58 0
